decision_x1=[0,4];
decision_x2=[0,4];
decision_x3=[0,4];
decision_x4=[0,4];
decision_x5=[0,4];
random_y1=[0,4];
constraint_x3_x1=[
0,1,4.5|
0,2,8|
0,3,0.53|
0,4,0.23|
1,0,0.71|
1,2,1.8|
1,3,3.7|
1,4,2.1|
2,0,4.2|
2,1,7.9|
2,3,1.1|
2,4,8|
3,0,5.1|
3,1,1.5|
3,2,0.029|
3,4,5.4|
4,0,6.5|
4,1,5.1|
4,2,9.6|
4,3,3.4|
];
constraint_x3_x2=[
0,1,1.7|
0,2,0.1|
0,3,9.3|
0,4,5.3|
1,0,5.6|
1,2,3.2|
1,3,0.1|
1,4,2|
2,0,5.9|
2,1,6.2|
2,3,0.042|
2,4,5.9|
3,0,2|
3,1,5.6|
3,2,9.6|
3,4,9.1|
4,0,4.5|
4,1,8.5|
4,2,9.8|
4,3,9.2|
];
constraint_x4_x2=[
0,1,3.1|
0,2,9.6|
0,3,5.6|
0,4,5.2|
1,0,5.3|
1,2,6.7|
1,3,8.4|
1,4,1.7|
2,0,6.7|
2,1,3.3|
2,3,2.9|
2,4,5.9|
3,0,8.9|
3,1,4.6|
3,2,0.34|
3,4,7|
4,0,5.5|
4,1,6.1|
4,2,7.9|
4,3,2.4|
];
constraint_x4_x3=[
0,1,9.7|
0,2,3.1|
0,3,5.8|
0,4,5.3|
1,0,4|
1,2,7.2|
1,3,2.1|
1,4,6|
2,0,7.7|
2,1,9.2|
2,3,6.2|
2,4,9|
3,0,5.3|
3,1,3.7|
3,2,6.3|
3,4,7.8|
4,0,4.3|
4,1,2.3|
4,2,0.99|
4,3,2.5|
];
constraint_x5_x2=[
0,1,3.7|
0,2,7.7|
0,3,8.5|
0,4,3|
1,0,5.8|
1,2,5.6|
1,3,9.8|
1,4,4|
2,0,4.6|
2,1,2|
2,3,2.4|
2,4,2.9|
3,0,4.9|
3,1,7.8|
3,2,0.98|
3,4,7.5|
4,0,0.5|
4,1,5.2|
4,2,6.2|
4,3,0.024|
];
constraint_x1_y1=[
0,0,2|
0,1,9.7|
0,2,9|
0,3,1.6|
0,4,5.2|
1,0,2.5|
1,1,1.7|
1,2,8|
1,3,5.6|
1,4,6.5|
2,0,6.5|
2,1,7.8|
2,2,1.7|
2,3,6.8|
2,4,2.9|
3,0,0.11|
3,1,4.7|
3,2,1.5|
3,3,4.4|
3,4,4.1|
4,0,6.9|
4,1,5.5|
4,2,8.1|
4,3,6.1|
4,4,0.62|
];
initial_distribution_y1=[0.28,0.086,0.26,0.11,0.27];
transition_y1=[
0.27,0.17,0.047,0.19,0.34|
0.26,0.24,0.32,0.13,0.055|
0.26,0.13,0.043,0.27,0.29|
0.22,0.21,0.21,0.11,0.24|
0.25,0.19,0.13,0.25,0.18|
];
